set VARIABLES := 1 2 3 4 5 6 7 8 9;
set CONSTRAINTS := 1;

param c :=
1   5
2   3
3   2
4   8
5   1
6   3
7   1
8   2
9   1
 ;

param b :=
1   10
 ;

param a :
    1 :=
1   9
2   7
3   6
4   4
5   3
6   3
7   2
8   2
9   1
 ;

